c Reading file experiments/loan_acquisition/mmc_encoding/mmc_cegqs_0.dimacs
c Building 1-fold quantitative self-composition...
c ind 125  126  127  128  129  130  131  132  146  148  150  151 0
c previous ind: 291  292  293  296  297  298  301  302  303  306  307  310  311  312  313  316  317  318  321  322  323  324  327  328  329  330  333  334  335  336  337  339  340  341  342  343 0
c This is a CNF SAT formula in the DIMACS CNF format,
c produced with the bc2cnf translator by Tommi Junttila;
c see http://users.ics.aalto.fi/tjunttil/circuits/index.html
c phi_Gamma_det <-> 1
c phi_Gamma <-> 1
c phi_T_transitions <-> 1
c phi_T_transitions_consistency <-> 1
c phi_T <-> 1
c phi_sim_leaves <-> 1
c phi_sim_transition <-> 1
c phi_sim <-> 1
c FORMULA <-> 1
c pi_0 <-> 2
c tau_0_3_approved_1 <-> 125
c tau_0_3_approved_0 <-> 126
c tau_0_2_approved_1 <-> 127
c tau_0_2_approved_0 <-> 128
c tau_0_1_approved_1 <-> 129
c tau_0_1_approved_0 <-> 130
c tau_0_0_approved_1 <-> 131
c tau_0_0_approved_0 <-> 132
c phi_T_feature_det <-> 133
c lam_0_credit_score <-> 146
c lam_0_dependents <-> 148
c lam_0_monthly_income <-> 150
c lam_0_age <-> 151
c phi_Gamma_val <-> 289
c credit_score_P33400 <-> 291
c monthly_income_P735921 <-> 292
c age_P7400 <-> 293
c credit_score_P60400 <-> 296
c monthly_income_P566540 <-> 297
c age_P5800 <-> 298
c credit_score_P73100 <-> 301
c monthly_income_P167200 <-> 302
c age_P3800 <-> 303
c credit_score_P32700 <-> 306
c monthly_income_P945243 <-> 307
c credit_score_P57700 <-> 310
c dependents_P0 <-> 311
c monthly_income_P303753 <-> 312
c age_P4800 <-> 313
c credit_score_P62200 <-> 316
c monthly_income_P603747 <-> 317
c age_P6800 <-> 318
c credit_score_P73200 <-> 321
c dependents_P100 <-> 322
c monthly_income_P473622 <-> 323
c age_P6600 <-> 324
c credit_score_P75400 <-> 327
c dependents_P400 <-> 328
c monthly_income_P360694 <-> 329
c age_P4400 <-> 330
c pi_approved_0 <-> 333
c approved_P0 <-> 333
c credit_score_P39800 <-> 334
c dependents_P600 <-> 335
c monthly_income_P592979 <-> 336
c age_P4100 <-> 337
c pi_approved_1 <-> 339
c approved_P100 <-> 339
c credit_score_P35300 <-> 340
c dependents_P200 <-> 341
c monthly_income_P728777 <-> 342
c age_P7700 <-> 343
c ind 291 292 293 296 297 298 301 302 303 306 307 310 311 312 313 316 317 318 321 322 323 324 327 328 329 330 333 334 335 336 337 339 340 341 342 343 0
p cnf 345 924
1 0
2 -3 0
2 -7 0
-2 7 3 0
2 0
-3 4 0
-3 72 0
3 -72 -4 0
-4 5 0
-4 146 0
4 -146 -5 0
5 -6 0
5 -85 0
-5 85 6 0
6 -64 0
6 -93 0
-6 93 64 0
7 -8 0
7 -12 0
-7 12 8 0
-8 9 0
-8 80 0
8 -80 -9 0
-9 10 0
-9 146 0
9 -146 -10 0
10 -11 0
10 -76 0
-10 76 11 0
11 -60 0
11 -89 0
-11 89 60 0
12 -13 0
12 -18 0
-12 18 13 0
-13 14 0
-13 37 0
13 -37 -14 0
-14 15 0
-14 146 0
14 -146 -15 0
15 -16 0
15 -52 0
-15 52 16 0
16 -17 0
16 -56 0
-16 56 17 0
17 -67 0
17 -96 0
-17 96 67 0
18 -19 0
18 -23 0
-18 23 19 0
-19 20 0
-19 80 0
19 -80 -20 0
-20 21 0
-20 148 0
20 -148 -21 0
21 -22 0
21 -52 0
-21 52 22 0
22 -85 0
22 -92 0
-22 92 85 0
23 -24 0
23 -29 0
-23 29 24 0
-24 25 0
-24 37 0
24 -37 -25 0
-25 26 0
-25 148 0
25 -148 -26 0
26 -27 0
26 -76 0
-26 76 27 0
27 -28 0
27 -56 0
-27 56 28 0
28 -59 0
28 -89 0
-28 89 59 0
29 -30 0
29 -35 0
-29 35 30 0
-30 31 0
-30 80 0
30 -80 -31 0
-31 32 0
-31 150 0
31 -150 -32 0
32 -33 0
32 -52 0
-32 52 33 0
33 -34 0
33 -56 0
-33 56 34 0
34 -60 0
34 -67 0
-34 67 60 0
35 -36 0
35 -45 0
-35 45 36 0
-36 37 0
-36 40 0
36 -40 -37 0
-37 38 0
-37 39 0
37 -39 -38 0
38 131 0
38 -339 0
-38 339 -131 0
39 132 0
39 -333 0
-39 333 -132 0
-40 41 0
-40 150 0
40 -150 -41 0
41 -42 0
41 -76 0
-41 76 42 0
42 -43 0
42 -85 0
-42 85 43 0
43 -44 0
43 -89 0
-43 89 44 0
44 -64 0
44 -92 0
-44 92 64 0
45 -46 0
45 -70 0
-45 70 46 0
-46 47 0
-46 50 0
46 -50 -47 0
-47 48 0
-47 49 0
47 -49 -48 0
48 125 0
48 -339 0
-48 339 -125 0
49 126 0
49 -333 0
-49 333 -126 0
-50 51 0
-50 151 0
50 -151 -51 0
51 -52 0
51 -55 0
-51 55 52 0
-52 53 0
-52 291 0
52 -291 -53 0
-53 54 0
-53 328 0
53 -328 -54 0
-54 292 0
-54 293 0
54 -293 -292 0
55 -56 0
55 -59 0
-55 59 56 0
-56 57 0
-56 306 0
56 -306 -57 0
-57 58 0
-57 322 0
57 -322 -58 0
-58 307 0
-58 318 0
58 -318 -307 0
59 -60 0
59 -63 0
-59 63 60 0
-60 61 0
-60 316 0
60 -316 -61 0
-61 62 0
-61 341 0
61 -341 -62 0
-62 317 0
-62 318 0
62 -318 -317 0
63 -64 0
63 -67 0
-63 67 64 0
-64 65 0
-64 321 0
64 -321 -65 0
-65 66 0
-65 322 0
65 -322 -66 0
-66 323 0
-66 324 0
66 -324 -323 0
-67 68 0
-67 340 0
67 -340 -68 0
-68 69 0
-68 341 0
68 -341 -69 0
-69 342 0
-69 343 0
69 -343 -342 0
70 -71 0
70 -79 0
-70 79 71 0
-71 72 0
-71 75 0
71 -75 -72 0
-72 73 0
-72 74 0
72 -74 -73 0
73 127 0
73 -339 0
-73 339 -127 0
74 128 0
74 -333 0
-74 333 -128 0
-75 76 0
-75 151 0
75 -151 -76 0
-76 77 0
-76 296 0
76 -296 -77 0
-77 78 0
-77 322 0
77 -322 -78 0
-78 297 0
-78 298 0
78 -298 -297 0
-79 80 0
-79 83 0
79 -83 -80 0
-80 81 0
-80 82 0
80 -82 -81 0
81 129 0
81 -339 0
-81 339 -129 0
82 130 0
82 -333 0
-82 333 -130 0
-83 84 0
-83 151 0
83 -151 -84 0
84 -85 0
84 -88 0
-84 88 85 0
-85 86 0
-85 301 0
85 -301 -86 0
-86 87 0
-86 335 0
86 -335 -87 0
-87 302 0
-87 303 0
87 -303 -302 0
88 -89 0
88 -92 0
-88 92 89 0
-89 90 0
-89 310 0
89 -310 -90 0
-90 91 0
-90 311 0
90 -311 -91 0
-91 312 0
-91 313 0
91 -313 -312 0
92 -93 0
92 -96 0
-92 96 93 0
-93 94 0
-93 327 0
93 -327 -94 0
-94 95 0
-94 328 0
94 -328 -95 0
-95 329 0
-95 330 0
95 -330 -329 0
-96 97 0
-96 334 0
96 -334 -97 0
-97 98 0
-97 335 0
97 -335 -98 0
-98 336 0
-98 337 0
98 -337 -336 0
99 146 0
99 -100 0
-99 100 -146 0
99 0
-100 -125 0
-100 -126 0
100 126 125 0
101 148 0
101 -102 0
-101 102 -148 0
101 0
-102 -125 0
-102 103 0
102 -103 125 0
-103 -126 0
-103 104 0
103 -104 126 0
-104 -127 0
-104 -128 0
104 128 127 0
105 -102 0
105 150 0
-105 -150 102 0
105 0
106 146 0
106 -107 0
-106 107 -146 0
106 0
-107 108 0
-107 111 0
107 -111 -108 0
108 -109 0
108 -110 0
-108 110 109 0
-109 -128 0
-109 127 0
109 -127 128 0
-110 -127 0
-110 128 0
110 -128 127 0
-111 112 0
-111 115 0
111 -115 -112 0
112 -113 0
112 -114 0
-112 114 113 0
-113 -130 0
-113 129 0
113 -129 130 0
-114 -129 0
-114 130 0
114 -130 129 0
115 -116 0
115 -117 0
-115 117 116 0
-116 -132 0
-116 131 0
116 -131 132 0
-117 -131 0
-117 132 0
117 -132 131 0
118 148 0
118 -111 0
-118 111 -148 0
118 0
119 150 0
119 -111 0
-119 111 -150 0
119 0
120 151 0
120 -121 0
-120 121 -151 0
120 0
-121 107 0
-121 122 0
121 -122 -107 0
122 -123 0
122 -124 0
-122 124 123 0
-123 -126 0
-123 125 0
123 -125 126 0
-124 -125 0
-124 126 0
124 -126 125 0
133 -134 0
133 -137 0
-133 137 134 0
133 0
-134 -148 0
-134 135 0
134 -135 148 0
-135 -150 0
-135 136 0
135 -136 150 0
-136 -151 0
-136 146 0
136 -146 151 0
137 -138 0
137 -141 0
-137 141 138 0
-138 -146 0
-138 139 0
138 -139 146 0
-139 -150 0
-139 140 0
139 -140 150 0
-140 -151 0
-140 148 0
140 -148 151 0
141 -142 0
141 -145 0
-141 145 142 0
-142 -146 0
-142 143 0
142 -143 146 0
-143 -148 0
-143 144 0
143 -144 148 0
-144 -151 0
-144 150 0
144 -150 151 0
-145 -146 0
-145 147 0
145 -147 146 0
-147 -148 0
-147 149 0
147 -149 148 0
-149 -150 0
-149 151 0
149 -151 150 0
152 339 0
152 333 0
-152 -333 -339 0
152 0
153 296 0
153 291 0
-153 -291 -296 0
153 0
154 301 0
154 -155 0
-154 155 -301 0
154 0
-155 -296 0
-155 -291 0
155 291 296 0
156 306 0
156 -157 0
-156 157 -306 0
156 0
-157 -291 0
-157 158 0
157 -158 291 0
-158 -296 0
-158 -301 0
158 301 296 0
159 310 0
159 -160 0
-159 160 -310 0
159 0
-160 -291 0
-160 161 0
160 -161 291 0
-161 -296 0
-161 162 0
161 -162 296 0
-162 -301 0
-162 -306 0
162 306 301 0
163 316 0
163 -164 0
-163 164 -316 0
163 0
-164 -291 0
-164 165 0
164 -165 291 0
-165 -296 0
-165 166 0
165 -166 296 0
-166 -301 0
-166 167 0
166 -167 301 0
-167 -306 0
-167 -310 0
167 310 306 0
168 321 0
168 -169 0
-168 169 -321 0
168 0
-169 -291 0
-169 170 0
169 -170 291 0
-170 -296 0
-170 171 0
170 -171 296 0
-171 -301 0
-171 172 0
171 -172 301 0
-172 -306 0
-172 173 0
172 -173 306 0
-173 -310 0
-173 -316 0
173 316 310 0
174 327 0
174 -175 0
-174 175 -327 0
174 0
-175 -291 0
-175 176 0
175 -176 291 0
-176 -296 0
-176 177 0
176 -177 296 0
-177 -301 0
-177 178 0
177 -178 301 0
-178 -306 0
-178 179 0
178 -179 306 0
-179 -310 0
-179 180 0
179 -180 310 0
-180 -316 0
-180 -321 0
180 321 316 0
181 334 0
181 -182 0
-181 182 -334 0
181 0
-182 -291 0
-182 183 0
182 -183 291 0
-183 -296 0
-183 184 0
183 -184 296 0
-184 -301 0
-184 185 0
184 -185 301 0
-185 -306 0
-185 186 0
185 -186 306 0
-186 -310 0
-186 187 0
186 -187 310 0
-187 -316 0
-187 188 0
187 -188 316 0
-188 -321 0
-188 -327 0
188 327 321 0
189 340 0
189 -190 0
-189 190 -340 0
189 0
-190 -291 0
-190 191 0
190 -191 291 0
-191 -296 0
-191 192 0
191 -192 296 0
-192 -301 0
-192 193 0
192 -193 301 0
-193 -306 0
-193 194 0
193 -194 306 0
-194 -310 0
-194 195 0
194 -195 310 0
-195 -316 0
-195 196 0
195 -196 316 0
-196 -321 0
-196 197 0
196 -197 321 0
-197 -327 0
-197 -334 0
197 334 327 0
198 322 0
198 311 0
-198 -311 -322 0
198 0
199 328 0
199 -200 0
-199 200 -328 0
199 0
-200 -322 0
-200 -311 0
200 311 322 0
201 335 0
201 -202 0
-201 202 -335 0
201 0
-202 -311 0
-202 203 0
202 -203 311 0
-203 -322 0
-203 -328 0
203 328 322 0
204 341 0
204 -205 0
-204 205 -341 0
204 0
-205 -311 0
-205 206 0
205 -206 311 0
-206 -322 0
-206 207 0
206 -207 322 0
-207 -328 0
-207 -335 0
207 335 328 0
208 297 0
208 292 0
-208 -292 -297 0
208 0
209 302 0
209 -210 0
-209 210 -302 0
209 0
-210 -297 0
-210 -292 0
210 292 297 0
211 307 0
211 -212 0
-211 212 -307 0
211 0
-212 -292 0
-212 213 0
212 -213 292 0
-213 -297 0
-213 -302 0
213 302 297 0
214 312 0
214 -215 0
-214 215 -312 0
214 0
-215 -292 0
-215 216 0
215 -216 292 0
-216 -297 0
-216 217 0
216 -217 297 0
-217 -302 0
-217 -307 0
217 307 302 0
218 317 0
218 -219 0
-218 219 -317 0
218 0
-219 -292 0
-219 220 0
219 -220 292 0
-220 -297 0
-220 221 0
220 -221 297 0
-221 -302 0
-221 222 0
221 -222 302 0
-222 -307 0
-222 -312 0
222 312 307 0
223 323 0
223 -224 0
-223 224 -323 0
223 0
-224 -292 0
-224 225 0
224 -225 292 0
-225 -297 0
-225 226 0
225 -226 297 0
-226 -302 0
-226 227 0
226 -227 302 0
-227 -307 0
-227 228 0
227 -228 307 0
-228 -312 0
-228 -317 0
228 317 312 0
229 329 0
229 -230 0
-229 230 -329 0
229 0
-230 -292 0
-230 231 0
230 -231 292 0
-231 -297 0
-231 232 0
231 -232 297 0
-232 -302 0
-232 233 0
232 -233 302 0
-233 -307 0
-233 234 0
233 -234 307 0
-234 -312 0
-234 235 0
234 -235 312 0
-235 -317 0
-235 -323 0
235 323 317 0
236 336 0
236 -237 0
-236 237 -336 0
236 0
-237 -292 0
-237 238 0
237 -238 292 0
-238 -297 0
-238 239 0
238 -239 297 0
-239 -302 0
-239 240 0
239 -240 302 0
-240 -307 0
-240 241 0
240 -241 307 0
-241 -312 0
-241 242 0
241 -242 312 0
-242 -317 0
-242 243 0
242 -243 317 0
-243 -323 0
-243 -329 0
243 329 323 0
244 342 0
244 -245 0
-244 245 -342 0
244 0
-245 -292 0
-245 246 0
245 -246 292 0
-246 -297 0
-246 247 0
246 -247 297 0
-247 -302 0
-247 248 0
247 -248 302 0
-248 -307 0
-248 249 0
248 -249 307 0
-249 -312 0
-249 250 0
249 -250 312 0
-250 -317 0
-250 251 0
250 -251 317 0
-251 -323 0
-251 252 0
251 -252 323 0
-252 -329 0
-252 -336 0
252 336 329 0
253 298 0
253 293 0
-253 -293 -298 0
253 0
254 303 0
254 -255 0
-254 255 -303 0
254 0
-255 -298 0
-255 -293 0
255 293 298 0
256 313 0
256 -257 0
-256 257 -313 0
256 0
-257 -293 0
-257 258 0
257 -258 293 0
-258 -298 0
-258 -303 0
258 303 298 0
259 318 0
259 -260 0
-259 260 -318 0
259 0
-260 -293 0
-260 261 0
260 -261 293 0
-261 -298 0
-261 262 0
261 -262 298 0
-262 -303 0
-262 -313 0
262 313 303 0
263 324 0
263 -264 0
-263 264 -324 0
263 0
-264 -293 0
-264 265 0
264 -265 293 0
-265 -298 0
-265 266 0
265 -266 298 0
-266 -303 0
-266 267 0
266 -267 303 0
-267 -313 0
-267 -318 0
267 318 313 0
268 330 0
268 -269 0
-268 269 -330 0
268 0
-269 -293 0
-269 270 0
269 -270 293 0
-270 -298 0
-270 271 0
270 -271 298 0
-271 -303 0
-271 272 0
271 -272 303 0
-272 -313 0
-272 273 0
272 -273 313 0
-273 -318 0
-273 -324 0
273 324 318 0
274 337 0
274 -275 0
-274 275 -337 0
274 0
-275 -293 0
-275 276 0
275 -276 293 0
-276 -298 0
-276 277 0
276 -277 298 0
-277 -303 0
-277 278 0
277 -278 303 0
-278 -313 0
-278 279 0
278 -279 313 0
-279 -318 0
-279 280 0
279 -280 318 0
-280 -324 0
-280 -330 0
280 330 324 0
281 343 0
281 -282 0
-281 282 -343 0
281 0
-282 -293 0
-282 283 0
282 -283 293 0
-283 -298 0
-283 284 0
283 -284 298 0
-284 -303 0
-284 285 0
284 -285 303 0
-285 -313 0
-285 286 0
285 -286 313 0
-286 -318 0
-286 287 0
286 -287 318 0
-287 -324 0
-287 288 0
287 -288 324 0
-288 -330 0
-288 -337 0
288 337 330 0
289 -290 0
289 -294 0
-289 294 290 0
289 0
-290 52 0
-290 339 0
290 -339 -52 0
294 -295 0
294 -299 0
-294 299 295 0
-295 76 0
-295 333 0
295 -333 -76 0
299 -300 0
299 -304 0
-299 304 300 0
-300 85 0
-300 333 0
300 -333 -85 0
304 -305 0
304 -308 0
-304 308 305 0
-305 56 0
-305 339 0
305 -339 -56 0
308 -309 0
308 -314 0
-308 314 309 0
-309 89 0
-309 333 0
309 -333 -89 0
314 -315 0
314 -319 0
-314 319 315 0
-315 60 0
-315 339 0
315 -339 -60 0
319 -320 0
319 -325 0
-319 325 320 0
-320 64 0
-320 333 0
320 -333 -64 0
325 -326 0
325 -331 0
-325 331 326 0
-326 93 0
-326 333 0
326 -333 -93 0
331 -332 0
331 -338 0
-331 338 332 0
-332 96 0
-332 333 0
332 -333 -96 0
-338 67 0
-338 339 0
338 -339 -67 0
